language ESSENCE' 1.0

letting shifts_ExplicitR6_ExplicitVarSizeWithDummy be
        [[1, 2, 5; int(1..3)], [1, 2, 3; int(1..3)], [3, 4, 5; int(1..3)]; int(1..3)]
$ Visualisation for shifts_ExplicitR6_ExplicitVarSizeWithDummy
$ 1 2 5
$ 1 2 3
$ 3 4 5

letting fin1 be 3
letting fin2 be 3
letting Tasks_EnumSize be 4
